n = 2;
m = 2;
num_of_regions = 7;
regions_max_size = 3;

regions = [|
3, 2, 1,1, 2,1, 0,0, |
8, 3, 1,2, 2,2, 3,2, |
6, 2, 1,3, 1,4, 0,0, |
7, 2, 2,3, 3,3, 0,0, |
3, 2, 2,4, 3,4, 0,0, |
7, 2, 3,1, 4,1, 0,0, |
6, 3, 4,2, 4,3, 4,4, |];

matrix = [|
1, 3, 2, 4, |
2, 4, 3, 1, |
3, 1, 4, 2, |
4, 2, 1, 3, |];